# http://en.wikipedia.org/wiki/Survo_Puzzle, under "Swapping method"
# (open puzzle)
# 
param r := 4;
param c := 4;

param rowsums :=
   1 51
   2 36
   3 32
   4 17
;

param colsums :=
   1 51
   2 42
   3 26
   4 17
;

param matrix: 1 2 3 4:=
   1  0 0 0 0
   2  0 0 0 0
   3  0 0 0 0
   4  0 0 0 0
;
